Sat 19 May 19:21:11 CEST 2018
CPXPARAM_TimeLimit                               45
CPXPARAM_Threads                                 1
CPXPARAM_MIP_Strategy_CallbackReducedLP          0
Tried aggregator 2 times.
MIP Presolve eliminated 1152 rows and 832 columns.
MIP Presolve modified 104 coefficients.
Aggregator did 300 substitutions.
Reduced MIP has 528 rows, 617 columns, and 1760 nonzeros.
Reduced MIP has 612 binaries, 5 generals, 0 SOSs, and 148 indicators.
Presolve time = 0.00 sec. (3.80 ticks)
Probing time = 0.01 sec. (5.34 ticks)
Cover probing fixed 0 vars, tightened 5 bounds.
Tried aggregator 3 times.
MIP Presolve modified 48 coefficients.
Aggregator did 292 substitutions.
Reduced MIP has 260 rows, 325 columns, and 1224 nonzeros.
Reduced MIP has 320 binaries, 5 generals, 0 SOSs, and 124 indicators.
Presolve time = 0.00 sec. (2.66 ticks)
Probing time = 0.00 sec. (2.04 ticks)
Tried aggregator 2 times.
Aggregator did 24 substitutions.
Reduced MIP has 236 rows, 301 columns, and 1176 nonzeros.
Reduced MIP has 296 binaries, 5 generals, 0 SOSs, and 124 indicators.
Presolve time = 0.00 sec. (1.92 ticks)
Probing time = 0.00 sec. (1.90 ticks)
Clique table members: 1708.
MIP emphasis: balance optimality and feasibility.
MIP search method: dynamic search.
Parallel mode: none, using 1 thread.
Root relaxation solution time = 0.00 sec. (0.44 ticks)

        Nodes                                         Cuts/
   Node  Left     Objective  IInf  Best Integer    Best Bound    ItCnt     Gap

      0     0        3.0000   129                      3.0000       25         
      0     0        3.0000    54                Cliques: 159      136         
      0     0        3.0000    23                Cliques: 159      186         
      0     0        3.0000    12                Impl Bds: 32      230         
      0     0        3.0000     7                    Cuts: 33      250         
      0     0        3.0000    13                    Cuts: 34      253         
      0     0        3.0000     5                    Cuts: 34      280         
      0     0        3.0000     9                    Cuts: 23      289         
*     0+    0                            6.0000        3.0000            50.00%
*     0+    0                            3.0000        3.0000             0.00%
      0     0        cutoff              3.0000        3.0000      289    0.00%
Elapsed time = 0.05 sec. (50.15 ticks, tree = 0.01 MB, solutions = 2)

Clique cuts applied:  21
Implied bound cuts applied:  129

Root node processing (before b&c):
  Real time             =    0.06 sec. (50.22 ticks)
Sequential b&c:
  Real time             =    0.00 sec. (0.00 ticks)
                          ------------
Total (root+branch&cut) =    0.06 sec. (50.22 ticks)
  | W
L | 0 1 2 3 4 5 6 
------------------
0 | 3 3 3 4 4 4 1 
1 | 3 3 3 4 4 4 2 
2 | 3 3 3 4 4 4 . 
3 | . . . . . . . 
4 | . . . . . . . 
5 | . . . . . . . 
6 | . . . . . . . 
7 | . . . . . . . 

Boxes' corners:      (w,l)
    Box 1 is at 
        top left     (6,0)
        bottom right (6,0)

    Box 2 is at 
        top left     (6,1)
        bottom right (6,1)

    Box 3 is at 
        top left     (0,0)
        bottom right (2,2)

    Box 4 is at 
        top left     (3,0)
        bottom right (5,2)

    Roll length used: 3
In 0.06 seconds
